
  10    2
   3    3

   0   0   0   2 2 4 
   1   1   1   2 6 3 
   2   0   2   3 9 7 5 
   2   1   1   2 8 7 
   1   1   0   1 8 
   1   1   1   1 7 
   1   2   0   1 10
   1   0   1   1 10
   1   2   2   1 10
   0   0   0   0 
